c Random 4-CNF over 20 variables and 60 clauses
c Generated with `cnfgen`
c (C) 2012-2016 Massimo Lauria <lauria.massimo@gmail.com>
c https://massimolauria.github.io/cnfgen
c
c COMMAND LINE: cnfgen --output tmp-4-20-60.dimacs --output-format dimacs randkcnf 4 20 60
c
c sdimacs generated by gen-sdimacs
c
p cnf 20 60
r 0.5 1 2 3 4 5 6 7 8 9 10 0
e  11 12 13 14 15 16 17 18 19 20 0
-7 -12 15 16 0
-5 7 -19 -20 0
-5 -8 -16 -18 0
-5 -8 -10 14 0
4 9 11 18 0
-10 -17 -19 20 0
1 3 6 -10 0
7 -10 -13 20 0
-4 9 14 17 0
8 9 11 14 0
4 11 -14 -15 0
-1 -2 -14 20 0
-7 11 -13 -18 0
-4 5 -7 -8 0
1 3 -6 12 0
-3 6 12 19 0
3 -8 -12 20 0
5 6 -7 9 0
3 -7 -13 15 0
7 11 13 -15 0
-6 -10 -12 20 0
-5 13 18 20 0
-1 7 13 -16 0
2 3 8 12 0
-4 -8 10 19 0
-1 -7 -10 -16 0
-5 6 -11 18 0
2 -8 15 -17 0
-9 -11 -14 -18 0
2 -12 17 -20 0
8 -14 -16 19 0
-2 -7 12 -15 0
2 -7 8 19 0
3 -7 17 20 0
-10 -12 16 -19 0
4 8 13 14 0
-4 5 -14 -16 0
-9 -10 -18 -20 0
1 2 -9 -19 0
6 11 13 -19 0
-10 -14 19 -20 0
-8 10 -15 -20 0
2 -4 -5 14 0
-3 -5 -6 16 0
-3 4 14 -16 0
1 16 19 20 0
-2 -6 11 17 0
-5 6 -12 18 0
6 9 15 -17 0
-9 11 12 -16 0
-1 -6 10 -17 0
4 10 16 -19 0
3 -7 -8 -16 0
3 -7 -8 -19 0
2 -3 5 -20 0
3 5 8 -10 0
-2 3 -7 -12 0
10 11 15 -18 0
-4 7 14 -18 0
-4 13 -15 19 0
